StudentsNr = 10;
InstructorsNr = 56;
DaysNr = 1;
SlotsPerDay = 40;
AvailabilitySlotsLenght = 5;
RoomNr = 1;
ProgrammNr = 2;
DegreeNr = 3;
RolesNr = 0;
CoursesNr = 4;
InstructorsProgramm = [{1}, {1}, {2}, {1}, {2}, {2}, {1}, {2}, {1}, {2}, {2}, {1}, {1, 2}, {2}, {2}, {1}, {1}, {2}, {1, 2}, {1, 2}, {1, 2}, {1}, {1, 2}, {1, 2}, {1}, {1}, {2}, {1}, {1, 2}, {2}, {1, 2}, {1}, {2}, {1}, {2}, {1}, {1, 2}, {1}, {2}, {2}, {2}, {1, 2}, {1, 2}, {2}, {1}, {2}, {2}, {1}, {1, 2}, {1, 2}, {1, 2}, {1}, {2}, {2}, {2}, {1}];
InstructorRolesPerProgramm = array2d(1..ProgrammNr,{},[]);
InstructorsAvailability = [|0, 1, 1, 1, 1, 1, 1, 1, |1, 1, 1, 0, 1, 1, 1, 0, |1, 1, 1, 1, 1, 0, 1, 1, |0, 0, 1, 1, 1, 1, 1, 1, |0, 0, 0, 1, 0, 1, 1, 1, |0, 0, 1, 1, 1, 1, 1, 1, |0, 0, 1, 1, 1, 0, 1, 1, |0, 1, 1, 1, 1, 1, 1, 1, |1, 1, 1, 1, 1, 1, 1, 1, |0, 0, 1, 1, 1, 1, 1, 1, |0, 1, 1, 1, 1, 1, 0, 0, |1, 1, 0, 0, 1, 1, 1, 0, |0, 1, 1, 1, 1, 1, 1, 1, |0, 1, 1, 1, 0, 0, 1, 1, |0, 1, 1, 1, 1, 1, 1, 1, |1, 0, 1, 1, 0, 0, 0, 1, |0, 1, 1, 1, 1, 1, 1, 1, |0, 0, 1, 0, 1, 1, 1, 1, |1, 1, 1, 1, 1, 1, 1, 1, |0, 1, 1, 0, 0, 1, 1, 1, |0, 1, 0, 1, 0, 1, 1, 0, |0, 1, 1, 1, 1, 1, 0, 0, |0, 0, 1, 1, 1, 0, 0, 0, |1, 1, 1, 1, 0, 1, 0, 1, |1, 1, 1, 1, 1, 1, 0, 1, |0, 1, 1, 0, 0, 1, 1, 1, |1, 1, 1, 1, 1, 0, 0, 1, |1, 1, 1, 1, 0, 0, 1, 1, |0, 1, 1, 1, 1, 1, 1, 1, |0, 0, 0, 0, 1, 1, 1, 0, |1, 1, 1, 1, 1, 1, 1, 1, |0, 1, 1, 1, 0, 0, 0, 1, |0, 0, 0, 1, 1, 1, 1, 1, |1, 1, 0, 1, 1, 0, 0, 0, |1, 1, 0, 0, 1, 1, 0, 1, |0, 1, 1, 1, 0, 0, 0, 1, |0, 1, 1, 1, 1, 1, 1, 1, |1, 1, 0, 1, 1, 1, 1, 1, |0, 1, 1, 1, 1, 1, 1, 1, |0, 1, 1, 1, 0, 1, 1, 1, |1, 1, 1, 1, 1, 0, 1, 1, |0, 1, 0, 1, 1, 1, 1, 1, |0, 0, 1, 1, 0, 0, 1, 1, |0, 0, 1, 0, 1, 1, 1, 0, |0, 1, 1, 1, 1, 0, 1, 0, |1, 1, 1, 1, 1, 1, 1, 1, |0, 0, 1, 1, 1, 1, 1, 1, |0, 1, 1, 1, 1, 0, 1, 1, |1, 0, 0, 0, 0, 1, 1, 1, |1, 0, 1, 0, 0, 0, 0, 0, |1, 1, 1, 1, 1, 1, 1, 1, |1, 1, 1, 1, 1, 0, 0, 1, |1, 0, 1, 1, 1, 1, 1, 1, |1, 1, 1, 1, 1, 1, 1, 1, |0, 0, 1, 1, 1, 1, 1, 0, |1, 1, 1, 1, 1, 1, 1, 1|];
StudentsProgramm = [2, 1, 1, 1, 1, 2, 1, 1, 1, 1];
StudentsDegree = [1, 2, 2, 2, 1, 1, 3, 3, 3, 3];
StudentsSupervisorId = [3, 28, 38, 56, 26, 35, 37, 26, 50, 13];
StudentsCourseIds = [{}, {}, {}, {}, {}, {}, {1, 2, 4}, {1, 3, 4}, {2, 3, 4}, {1, 2, 4}];
StudentsAvailability = [|1, 1, 1, 1, 1, 1, 1, 1, |0, 0, 0, 0, 0, 1, 1, 1, |1, 1, 1, 1, 0, 1, 1, 1, |0, 1, 1, 1, 0, 1, 1, 1, |1, 1, 1, 1, 1, 1, 1, 1, |0, 1, 1, 0, 1, 1, 1, 1, |1, 1, 1, 1, 1, 1, 1, 1, |0, 0, 0, 1, 1, 1, 1, 0, |1, 1, 1, 1, 1, 1, 1, 1, |0, 1, 1, 1, 0, 0, 0, 0|];
TheoryticalMinCard = [1, 1, 1, 1, 1, 1, 3, 3, 3, 4];
CoursesInstructorIds = [{3, 6, 7, 9, 10, 14, 15, 17, 28, 30, 31, 37, 43, 56}, {3, 4, 5, 6, 10, 11, 12, 14, 15, 17, 19, 21, 22, 24, 25, 26, 30, 35, 36, 37, 38, 39, 44, 45, 46, 48, 51, 52, 55}, {1, 2, 3, 4, 5, 6, 7, 8, 9, 10, 11, 12, 15, 16, 18, 19, 20, 23, 24, 25, 26, 28, 29, 31, 33, 36, 37, 38, 39, 40, 42, 44, 45, 47, 50, 51, 52, 53, 54, 55}, {3, 4, 5, 8, 9, 12, 16, 17, 18, 19, 20, 21, 22, 24, 25, 26, 28, 29, 30, 33, 34, 35, 36, 38, 40, 44, 47, 48, 51, 52, 53, 54, 55, 56}];
RolesDemands = [];
RolesContinuity = [];
ExamLen = [1, 2, 2, 2, 1, 1, 2, 2, 2, 2];
LunchTsMinLen = 1;
LunchStarts = [17..25];
SupervisorAvailable = 0;
OptimalLunchLenght = [2, 1];
OptimalStartTs = [0, 0];
OptimalFinishTs = [2, 40];
MinimizeRooms = 100;
RolesSoftContinuity = array2d(1..2,{},[]);
SameDegreeInRoom = 20;
Mergeability = 2;
